networks/zoo_70_238/zoo_70_238-lower.txt
Number of groups: 46
Flow 2: {1 28 0} {28 7 1} {7 18 2} {18 53 3} 
Flow 8: {2 28 0} {28 63 1} 
Flow 11: {3 30 0} {30 26 1} {26 27 2} {27 7 3} {7 42 4} 
Flow 19: {4 28 0} 
Flow 27: {6 28 0} {28 29 1} {29 64 2} 
Flow 36: {8 28 0} {28 6 1} {6 41 2} 
Flow 47: {9 5 0} {5 28 1} 
Flow 52: {10 28 0} 
Flow 56: {11 29 0} {29 30 1} {30 31 2} {31 66 3} 
Flow 58: {12 29 0} 
Flow 59: {13 29 0} 
Flow 66: {14 29 0} {29 18 1} {18 7 2} {7 27 3} {27 62 4} 
Flow 72: {15 29 0} 
Flow 75: {16 29 0} {29 28 1} 
Flow 82: {19 29 0} 
Flow 86: {20 28 0} 
Flow 87: {21 28 0} {28 1 1} {1 36 2} 
Flow 96: {22 29 0} 
Flow 98: {30 3 0} {3 38 1} 
Flow 99: {28 5 0} {5 40 1} 
Flow 102: {23 29 0} {29 11 1} {11 46 2} 
Flow 113: {25 29 0} {29 17 1} {17 52 2} 
Flow 130: {7 28 0} {28 8 1} {8 43 2} 
Flow 132: {29 13 0} {13 48 1} 
Flow 133: {29 14 0} {14 49 1} 
Flow 134: {29 15 0} {15 50 1} 
Flow 137: {29 19 0} {19 54 1} 
Flow 138: {28 20 0} {20 55 1} 
Flow 139: {28 21 0} {21 56 1} 
Flow 140: {29 23 0} {23 58 1} 
Flow 141: {29 24 0} {24 59 1} 
Flow 142: {18 29 0} {29 25 1} {25 60 2} 
Flow 148: {30 34 0} {34 69 1} 
Flow 149: {26 30 0} {30 35 1} {35 70 2} 
Flow 151: {28 2 0} {2 37 1} 
Flow 153: {28 4 0} {4 39 1} 
Flow 158: {5 9 0} {9 44 1} 
Flow 172: {27 26 0} {26 61 1} 
Flow 177: {27 31 0} {31 32 1} {32 67 2} 
Flow 178: {30 33 0} {33 68 1} 
Flow 199: {29 22 0} {22 57 1} 
Flow 216: {31 27 0} 
Flow 221: {32 31 0} {31 30 1} {30 65 2} 
Flow 224: {33 30 0} 
Flow 228: {34 30 0} {30 29 1} 
Flow 238: {35 30 0} 
Time taken running everything: 1 seconds
