networks/zoo_70_238/zoo_70_238-lower.sol
<?xml version = "1.0" encoding="UTF-8" standalone="yes"?>
<CPLEXSolution version="1.2">
 <header
   problemName="networks/zoo_70_238/zoo_70_238-lower.lp"
   solutionName="incumbent"
   solutionIndex="-1"
   objectiveValue="32"
   solutionTypeValue="3"
   solutionTypeString="primal"
   solutionStatusValue="101"
   solutionStatusString="integer optimal solution"
   solutionMethodString="mip"
   primalFeasible="1"
   dualFeasible="1"
   MIPNodes="0"
   MIPIterations="0"
   writeLevel="3"/>
 <quality
   epInt="1.0000000000000001e-05"
   epRHS="9.9999999999999995e-07"
   maxIntInfeas="0"
   maxPrimalInfeas="0"
   maxX="1"
   maxSlack="1"/>
 <variables>
  <variable name="Y(1,7)" index="6" value="1"/>
  <variable name="Y(2,18)" index="84" value="1"/>
  <variable name="Y(3,27)" index="160" value="1"/>
  <variable name="Y(4,28)" index="228" value="1"/>
  <variable name="Y(5,29)" index="296" value="1"/>
  <variable name="Y(6,30)" index="364" value="1"/>
  <variable name="Y(7,31)" index="432" value="1"/>
  <variable name="Y(35,1)" index="2278" value="1"/>
  <variable name="Y(36,6)" index="2350" value="1"/>
  <variable name="Y(38,17)" index="2495" value="1"/>
  <variable name="Y(98,3)" index="6501" value="1"/>
  <variable name="Y(99,5)" index="6570" value="1"/>
  <variable name="Y(102,11)" index="6777" value="1"/>
  <variable name="Y(130,8)" index="8650" value="1"/>
  <variable name="Y(132,13)" index="8789" value="1"/>
  <variable name="Y(133,14)" index="8857" value="1"/>
  <variable name="Y(134,15)" index="8925" value="1"/>
  <variable name="Y(137,19)" index="9130" value="1"/>
  <variable name="Y(138,20)" index="9198" value="1"/>
  <variable name="Y(139,21)" index="9266" value="1"/>
  <variable name="Y(140,23)" index="9335" value="1"/>
  <variable name="Y(141,24)" index="9403" value="1"/>
  <variable name="Y(142,25)" index="9471" value="1"/>
  <variable name="Y(143,26)" index="9539" value="1"/>
  <variable name="Y(148,34)" index="9882" value="1"/>
  <variable name="Y(149,35)" index="9950" value="1"/>
  <variable name="Y(151,2)" index="10051" value="1"/>
  <variable name="Y(153,4)" index="10187" value="1"/>
  <variable name="Y(158,9)" index="10527" value="1"/>
  <variable name="Y(168,22)" index="11210" value="1"/>
  <variable name="Y(177,32)" index="11823" value="1"/>
  <variable name="Y(178,33)" index="11891" value="1"/>
  <variable name="X(1,28,1)" index="15946" value="1"/>
  <variable name="X(1,36,35)" index="16218" value="1"/>
  <variable name="X(2,28,8)" index="16429" value="1"/>
  <variable name="X(2,37,151)" index="16810" value="1"/>
  <variable name="X(3,30,11)" index="16908" value="1"/>
  <variable name="X(3,38,98)" index="17233" value="1"/>
  <variable name="X(4,28,18)" index="17391" value="1"/>
  <variable name="X(4,39,153)" index="17764" value="1"/>
  <variable name="X(5,9,158)" index="18007" value="1"/>
  <variable name="X(5,28,20)" index="18107" value="1"/>
  <variable name="X(5,40,99)" index="18424" value="1"/>
  <variable name="X(6,28,25)" index="18588" value="1"/>
  <variable name="X(6,41,36)" index="18837" value="1"/>
  <variable name="X(7,18,2)" index="19041" value="1"/>
  <variable name="X(7,27,3)" index="19280" value="1"/>
  <variable name="X(7,28,31)" index="19546" value="1"/>
  <variable name="X(7,42,1)" index="19754" value="1"/>
  <variable name="X(8,28,35)" index="20026" value="1"/>
  <variable name="X(8,43,130)" index="20359" value="1"/>
  <variable name="X(9,5,45)" index="20512" value="1"/>
  <variable name="X(9,44,158)" index="20863" value="1"/>
  <variable name="X(10,28,51)" index="20994" value="1"/>
  <variable name="X(11,29,53)" index="21234" value="1"/>
  <variable name="X(11,46,102)" index="21521" value="1"/>
  <variable name="X(12,29,57)" index="21714" value="1"/>
  <variable name="X(13,29,59)" index="21954" value="1"/>
  <variable name="X(13,48,132)" index="22265" value="1"/>
  <variable name="X(14,29,66)" index="22437" value="1"/>
  <variable name="X(14,49,133)" index="22742" value="1"/>
  <variable name="X(15,29,70)" index="22917" value="1"/>
  <variable name="X(15,50,134)" index="23219" value="1"/>
  <variable name="X(16,29,75)" index="23398" value="1"/>
  <variable name="X(17,52,38)" index="23599" value="1"/>
  <variable name="X(18,7,53)" index="23852" value="1"/>
  <variable name="X(18,29,32)" index="24069" value="1"/>
  <variable name="X(18,53,2)" index="24277" value="1"/>
  <variable name="X(19,29,81)" index="24594" value="1"/>
  <variable name="X(19,54,137)" index="24888" value="1"/>
  <variable name="X(20,28,83)" index="25072" value="1"/>
  <variable name="X(20,55,138)" index="25365" value="1"/>
  <variable name="X(21,28,87)" index="25552" value="1"/>
  <variable name="X(21,56,139)" index="25842" value="1"/>
  <variable name="X(22,29,95)" index="26036" value="1"/>
  <variable name="X(22,57,168)" index="26347" value="1"/>
  <variable name="X(23,29,97)" index="26514" value="1"/>
  <variable name="X(23,58,140)" index="26795" value="1"/>
  <variable name="X(24,59,141)" index="27034" value="1"/>
  <variable name="X(25,29,110)" index="27241" value="1"/>
  <variable name="X(25,60,142)" index="27511" value="1"/>
  <variable name="X(26,27,11)" index="27618" value="1"/>
  <variable name="X(26,30,122)" index="27967" value="1"/>
  <variable name="X(26,61,143)" index="28226" value="1"/>
  <variable name="X(27,7,11)" index="28332" value="1"/>
  <variable name="X(27,26,126)" index="28685" value="1"/>
  <variable name="X(27,31,7)" index="28804" value="1"/>
  <variable name="X(27,62,3)" index="29038" value="1"/>
  <variable name="X(28,1,35)" index="29308" value="1"/>
  <variable name="X(28,2,151)" index="29662" value="1"/>
  <variable name="X(28,4,153)" index="29902" value="1"/>
  <variable name="X(28,5,99)" index="30086" value="1"/>
  <variable name="X(28,6,36)" index="30261" value="1"/>
  <variable name="X(28,7,1)" index="30464" value="1"/>
  <variable name="X(28,8,130)" index="30831" value="1"/>
  <variable name="X(28,20,138)" index="31077" value="1"/>
  <variable name="X(28,21,139)" index="31316" value="1"/>
  <variable name="X(28,29,5)" index="31420" value="1"/>
  <variable name="X(28,63,4)" index="31657" value="1"/>
  <variable name="X(29,11,102)" index="31993" value="1"/>
  <variable name="X(29,13,132)" index="32261" value="1"/>
  <variable name="X(29,14,133)" index="32500" value="1"/>
  <variable name="X(29,15,134)" index="32739" value="1"/>
  <variable name="X(29,17,38)" index="32881" value="1"/>
  <variable name="X(29,18,12)" index="33093" value="1"/>
  <variable name="X(29,19,137)" index="33456" value="1"/>
  <variable name="X(29,22,168)" index="33725" value="1"/>
  <variable name="X(29,23,140)" index="33935" value="1"/>
  <variable name="X(29,24,141)" index="34174" value="1"/>
  <variable name="X(29,25,142)" index="34413" value="1"/>
  <variable name="X(29,28,14)" index="34523" value="1"/>
  <variable name="X(29,30,6)" index="34753" value="1"/>
  <variable name="X(29,64,5)" index="34990" value="1"/>
  <variable name="X(30,3,98)" index="35321" value="1"/>
  <variable name="X(30,26,11)" index="35472" value="1"/>
  <variable name="X(30,29,12)" index="35711" value="1"/>
  <variable name="X(30,31,17)" index="35954" value="1"/>
  <variable name="X(30,33,178)" index="36353" value="1"/>
  <variable name="X(30,34,148)" index="36561" value="1"/>
  <variable name="X(30,35,149)" index="36800" value="1"/>
  <variable name="X(30,65,6)" index="36895" value="1"/>
  <variable name="X(31,27,216)" index="37343" value="1"/>
  <variable name="X(31,30,218)" index="37583" value="1"/>
  <variable name="X(31,32,177)" index="37780" value="1"/>
  <variable name="X(31,66,7)" index="37848" value="1"/>
  <variable name="X(32,31,220)" index="38299" value="1"/>
  <variable name="X(32,67,177)" index="38494" value="1"/>
  <variable name="X(33,30,222)" index="38777" value="1"/>
  <variable name="X(33,68,178)" index="38971" value="1"/>
  <variable name="X(34,30,227)" index="39258" value="1"/>
  <variable name="X(34,69,148)" index="39417" value="1"/>
  <variable name="X(35,30,234)" index="39741" value="1"/>
  <variable name="X(35,70,149)" index="39894" value="1"/>
 </variables>
</CPLEXSolution>
